s td 9 12 20
b 1 1 2 3 4 6 7 10 13 16 17 18 20
b 2 1 2 4 6 7 9 10 13 16 17 18 20
b 3 1 4 7 9 13 16 17 18 19 20
b 4 4 5 7 9 13 17 18 19 20
b 5 1 2 3 4 6 7 10 13 15 16 17 18
b 6 2 3 4 6 8 13 15 16 17
b 7 1 2 4 7 10 12 15 16 17
b 8 1 6 7 10 11 13 16 18 20
b 9 2 3 7 10 13 14 16 17 18 20
1 2
1 5
1 8
1 9
2 3
3 4
5 6
5 7
